certificates/rado_a7_c228_N33.drat
-32 -33 0
-33 0
30 0
-12 0
9 0
15 0
-27 0
24 0
-6 0
3 0
-21 0
18 0
32 0
-28 0
-7 0
-26 0
-14 0
-5 0
-13 0
-11 0
-19 0
-20 0
-22 0
25 0
31 0
1 0
4 0
10 0
23 0
29 0
0
